(set-logic QF_S)
(declare-fun var0 () String)
(assert (str.in.re var0 (re.++ (re.* (re.* (str.to.re "00"))) (re.++ (re.* (re.+ (str.to.re "11"))) (re.++ (re.* (re.union (str.to.re "22") (str.to.re "3"))) (re.++ (re.* (re.+ (str.to.re "4"))) (re.++ (re.+ (re.* (str.to.re "5"))) (re.++ (re.union (re.+ (str.to.re "666")) (re.+ (str.to.re "77"))) (re.++ (re.* (re.* (str.to.re "8"))) (re.++ (re.union (re.* (str.to.re "99")) (re.* (str.to.re "aa"))) (re.++ (re.+ (re.+ (str.to.re "bb"))) (re.++ (re.union (re.+ (str.to.re "c")) (re.+ (str.to.re "ddd"))) (re.++ (re.* (re.union (str.to.re "eee") (str.to.re "f"))) (re.++ (re.* (re.union (str.to.re "gg") (str.to.re "hh"))) (re.++ (re.+ (re.+ (str.to.re "iii"))) (re.++ (re.+ (re.+ (str.to.re "jjj"))) (re.++ (re.* (re.union (str.to.re "kkk") (str.to.re "ll"))) (re.++ (re.+ (re.union (str.to.re "m") (str.to.re "n"))) (re.++ (re.* (re.+ (str.to.re "o"))) (re.++ (re.union (re.+ (str.to.re "pp")) (re.+ (str.to.re "q"))) (re.++ (re.* (re.* (str.to.re "rr"))) (re.++ (re.union (re.union (str.to.re "sss") (str.to.re "t")) (re.union (str.to.re "uuu") (str.to.re "v"))) (re.++ (re.* (re.union (str.to.re "www") (str.to.re "xxx"))) (re.++ (re.+ (re.+ (str.to.re "yy"))) (re.++ (re.* (re.+ (str.to.re "z"))) (re.++ (re.* (re.* (str.to.re "AA"))) (re.++ (re.+ (re.* (str.to.re "BBB"))) (re.++ (re.union (re.+ (str.to.re "C")) (re.+ (str.to.re "DDD"))) (re.++ (re.union (re.union (str.to.re "EEE") (str.to.re "FF")) (re.union (str.to.re "GGG") (str.to.re "HHH"))) (re.++ (re.union (re.+ (str.to.re "I")) (re.+ (str.to.re "JJ"))) (re.++ (re.+ (re.* (str.to.re "KKK"))) (re.++ (re.union (re.+ (str.to.re "LLL")) (re.+ (str.to.re "M"))) (re.++ (re.union (re.union (str.to.re "N") (str.to.re "OOO")) (re.union (str.to.re "PP") (str.to.re "Q"))) (re.++ (re.union (re.+ (str.to.re "RR")) (re.+ (str.to.re "SSS"))) (re.++ (re.* (re.union (str.to.re "TT") (str.to.re "UU"))) (re.++ (re.union (re.union (str.to.re "V") (str.to.re "WWW")) (re.union (str.to.re "X") (str.to.re "Y"))) (re.++ (re.+ (re.* (str.to.re "Z"))) (re.++ (re.union (re.union (str.to.re "!!") (str.to.re """""""")) (re.union (str.to.re "###") (str.to.re "$$$"))) (re.++ (re.union (re.* (str.to.re "%")) (re.* (str.to.re "&"))) (re.++ (re.* (re.+ (str.to.re "''"))) (re.++ (re.union (re.+ (str.to.re "((")) (re.+ (str.to.re ")))"))) (re.++ (re.+ (re.* (str.to.re "*"))) (re.++ (re.+ (re.union (str.to.re "+++") (str.to.re ","))) (re.++ (re.union (re.* (str.to.re "-")) (re.* (str.to.re ".."))) (re.union (re.* (str.to.re "//")) (re.* (str.to.re "::")))))))))))))))))))))))))))))))))))))))))))))))
(check-sat)